block_table_value:
[[1 1 1 1 1 1 1 1]
 [1 1 1 1 1 1 1 1]
 [1 1 1 1 1 1 1 1]
 [1 1 1 1 1 1 1 1]
 [1 1 1 1 1 1 1 1]
 [1 1 1 1 1 1 1 1]
 [1 1 1 1 1 1 1 1]
 [1 1 1 1 1 1 1 1]]
Set parameter Username
Set parameter LicenseID to value 2603695
Academic license - for non-commercial use only - expires 2025-12-26
Gurobi Optimizer version 11.0.3 build v11.0.3rc0 (linux64 - "Debian GNU/Linux 12 (bookworm)")

CPU model: Intel(R) Xeon(R) Gold 6252 CPU @ 2.10GHz, instruction set [SSE2|AVX|AVX2|AVX512]
Thread count: 48 physical cores, 96 logical processors, using up to 32 threads

Optimize a model with 1024 rows, 625 columns and 3040 nonzeros
Model fingerprint: 0x111079a5
Variable types: 0 continuous, 625 integer (448 binary)
Coefficient statistics:
  Matrix range     [1e+00, 2e+00]
  Objective range  [1e+00, 1e+00]
  Bounds range     [1e+00, 1e+00]
  RHS range        [1e+00, 7e+00]
Presolve removed 144 rows and 48 columns
Presolve time: 0.01s
Presolved: 880 rows, 577 columns, 2752 nonzeros
Variable types: 0 continuous, 577 integer (560 binary)
Found heuristic solution: objective 14.0000000
Found heuristic solution: objective 13.0000000

Root relaxation: objective 3.500000e+00, 1204 iterations, 0.04 seconds (0.04 work units)

    Nodes    |    Current Node    |     Objective Bounds      |     Work
 Expl Unexpl |  Obj  Depth IntInf | Incumbent    BestBd   Gap | It/Node Time

     0     0    3.50000    0  577   13.00000    3.50000  73.1%     -    0s
H    0     0                      12.0000000    3.50000  70.8%     -    0s
     0     0    4.50794    0  544   12.00000    4.50794  62.4%     -    0s
     0     0    5.00000    0  453   12.00000    5.00000  58.3%     -    0s
     0     0    5.00000    0  473   12.00000    5.00000  58.3%     -    0s
     0     0    5.00000    0  466   12.00000    5.00000  58.3%     -    0s
     0     0    6.00000    0  350   12.00000    6.00000  50.0%     -    1s
     0     0    6.00000    0  353   12.00000    6.00000  50.0%     -    1s
     0     0    6.00000    0  353   12.00000    6.00000  50.0%     -    1s
H    0     0                      11.0000000    6.00000  45.5%     -    1s
     0     0    6.00000    0  338   11.00000    6.00000  45.5%     -    1s
     0     0    6.00000    0  327   11.00000    6.00000  45.5%     -    1s
     0     0    6.00000    0  353   11.00000    6.00000  45.5%     -    1s
     0     0    6.00000    0  353   11.00000    6.00000  45.5%     -    1s
     0     2    6.00000    0  353   11.00000    6.00000  45.5%     -    1s
H   89    91                      10.0000000    7.00000  30.0%   269    2s
H  141   147                       9.0000000    7.00000  22.2%   293    6s
H  148   147                       8.0000000    7.00000  12.5%   289    6s
  7071  1918 infeasible   39         8.00000    7.00000  12.5%   163   10s
 12712  2127    7.00000   31  353    8.00000    7.00000  12.5%   166   16s
 12729  2139    7.00000   39  287    8.00000    7.00000  12.5%   1.6   20s
 12884  2187    7.00000   30  285    8.00000    7.00000  12.5%   6.3   25s
 12916  2175 infeasible   31         8.00000    7.00000  12.5%   7.0   30s

Cutting planes:
  Gomory: 1
  MIR: 3
  Flow cover: 1
  Zero half: 2
  RLT: 13

Explored 14469 nodes (2622516 simplex iterations) in 33.99 seconds (39.37 work units)
Thread count was 32 (of 96 available processors)

Solution count 7: 8 9 10 ... 14

Optimal solution found (tolerance 1.00e-04)
Best objective 8.000000000000e+00, best bound 8.000000000000e+00, gap 0.0000%
LP solve time: 33.99811291694641 s
Optimal value: 8.0
LP result:
x_0_1_0: 0.0
x_0_1_1: 1.0
x_0_1_2: -0.0
x_0_1_3: 0.0
x_0_1_4: 0.0
x_0_1_5: 0.0
x_0_1_6: -0.0
x_0_1_7: -0.0
x_0_2_0: 0.0
x_0_2_1: -0.0
x_0_2_2: 1.0
x_0_2_3: 0.0
x_0_2_4: 0.0
x_0_2_5: 0.0
x_0_2_6: -0.0
x_0_2_7: -0.0
x_0_3_0: 1.0
x_0_3_1: -0.0
x_0_3_2: 0.0
x_0_3_3: 0.0
x_0_3_4: 0.0
x_0_3_5: 0.0
x_0_3_6: -0.0
x_0_3_7: -0.0
x_0_4_0: 1.0
x_0_4_1: 0.0
x_0_4_2: 0.0
x_0_4_3: -0.0
x_0_4_4: 0.0
x_0_4_5: 0.0
x_0_4_6: -0.0
x_0_4_7: -0.0
x_0_5_0: 0.0
x_0_5_1: 1.0
x_0_5_2: 0.0
x_0_5_3: -0.0
x_0_5_4: 0.0
x_0_5_5: 0.0
x_0_5_6: -0.0
x_0_5_7: -0.0
x_0_6_0: 0.0
x_0_6_1: 1.0
x_0_6_2: 0.0
x_0_6_3: -0.0
x_0_6_4: -0.0
x_0_6_5: 0.0
x_0_6_6: -0.0
x_0_6_7: -0.0
x_0_7_0: 0.0
x_0_7_1: 0.0
x_0_7_2: 1.0
x_0_7_3: 0.0
x_0_7_4: -0.0
x_0_7_5: 0.0
x_0_7_6: -0.0
x_0_7_7: 0.0
x_1_0_0: 1.0
x_1_0_1: 0.0
x_1_0_2: 0.0
x_1_0_3: 0.0
x_1_0_4: 0.0
x_1_0_5: -0.0
x_1_0_6: -0.0
x_1_0_7: -0.0
x_1_2_0: 0.0
x_1_2_1: 0.0
x_1_2_2: 0.0
x_1_2_3: 0.0
x_1_2_4: 0.0
x_1_2_5: 1.0
x_1_2_6: -0.0
x_1_2_7: -0.0
x_1_3_0: 1.0
x_1_3_1: -0.0
x_1_3_2: 0.0
x_1_3_3: 0.0
x_1_3_4: 0.0
x_1_3_5: 0.0
x_1_3_6: -0.0
x_1_3_7: -0.0
x_1_4_0: 1.0
x_1_4_1: -0.0
x_1_4_2: 0.0
x_1_4_3: 0.0
x_1_4_4: 0.0
x_1_4_5: 0.0
x_1_4_6: -0.0
x_1_4_7: -0.0
x_1_5_0: -0.0
x_1_5_1: 1.0
x_1_5_2: 0.0
x_1_5_3: 0.0
x_1_5_4: 0.0
x_1_5_5: 0.0
x_1_5_6: -0.0
x_1_5_7: -0.0
x_1_6_0: 0.0
x_1_6_1: 1.0
x_1_6_2: -0.0
x_1_6_3: 0.0
x_1_6_4: -0.0
x_1_6_5: 0.0
x_1_6_6: -0.0
x_1_6_7: -0.0
x_1_7_0: 0.0
x_1_7_1: 0.0
x_1_7_2: 0.0
x_1_7_3: -0.0
x_1_7_4: -0.0
x_1_7_5: 1.0
x_1_7_6: -0.0
x_1_7_7: -0.0
x_2_0_0: -0.0
x_2_0_1: -0.0
x_2_0_2: 1.0
x_2_0_3: -0.0
x_2_0_4: -0.0
x_2_0_5: -0.0
x_2_0_6: 0.0
x_2_0_7: -0.0
x_2_1_0: 0.0
x_2_1_1: -0.0
x_2_1_2: 0.0
x_2_1_3: -0.0
x_2_1_4: 0.0
x_2_1_5: 0.0
x_2_1_6: -0.0
x_2_1_7: 1.0
x_2_3_0: 0.0
x_2_3_1: -0.0
x_2_3_2: 0.0
x_2_3_3: -0.0
x_2_3_4: -0.0
x_2_3_5: 0.0
x_2_3_6: 1.0
x_2_3_7: -0.0
x_2_4_0: 0.0
x_2_4_1: -0.0
x_2_4_2: -0.0
x_2_4_3: -0.0
x_2_4_4: 0.0
x_2_4_5: 0.0
x_2_4_6: 1.0
x_2_4_7: 0.0
x_2_5_0: 0.0
x_2_5_1: -0.0
x_2_5_2: 0.0
x_2_5_3: -0.0
x_2_5_4: 0.0
x_2_5_5: 0.0
x_2_5_6: 0.0
x_2_5_7: 1.0
x_2_6_0: 0.0
x_2_6_1: -0.0
x_2_6_2: -0.0
x_2_6_3: -0.0
x_2_6_4: -0.0
x_2_6_5: 0.0
x_2_6_6: 1.0
x_2_6_7: -0.0
x_2_7_0: 0.0
x_2_7_1: -0.0
x_2_7_2: 1.0
x_2_7_3: -0.0
x_2_7_4: -0.0
x_2_7_5: 0.0
x_2_7_6: -0.0
x_2_7_7: 0.0
x_3_0_0: 0.0
x_3_0_1: -0.0
x_3_0_2: -0.0
x_3_0_3: 0.0
x_3_0_4: 1.0
x_3_0_5: -0.0
x_3_0_6: -0.0
x_3_0_7: -0.0
x_3_1_0: 0.0
x_3_1_1: 0.0
x_3_1_2: -0.0
x_3_1_3: 0.0
x_3_1_4: -0.0
x_3_1_5: -0.0
x_3_1_6: -0.0
x_3_1_7: 1.0
x_3_2_0: 0.0
x_3_2_1: -0.0
x_3_2_2: -0.0
x_3_2_3: 1.0
x_3_2_4: -0.0
x_3_2_5: -0.0
x_3_2_6: -0.0
x_3_2_7: 0.0
x_3_4_0: -0.0
x_3_4_1: -0.0
x_3_4_2: -0.0
x_3_4_3: 0.0
x_3_4_4: 1.0
x_3_4_5: -0.0
x_3_4_6: -0.0
x_3_4_7: 0.0
x_3_5_0: -0.0
x_3_5_1: 0.0
x_3_5_2: -0.0
x_3_5_3: 0.0
x_3_5_4: 0.0
x_3_5_5: -0.0
x_3_5_6: -0.0
x_3_5_7: 1.0
x_3_6_0: -0.0
x_3_6_1: 0.0
x_3_6_2: -0.0
x_3_6_3: 1.0
x_3_6_4: 0.0
x_3_6_5: -0.0
x_3_6_6: -0.0
x_3_6_7: -0.0
x_3_7_0: -0.0
x_3_7_1: 0.0
x_3_7_2: -0.0
x_3_7_3: -0.0
x_3_7_4: -0.0
x_3_7_5: -0.0
x_3_7_6: -0.0
x_3_7_7: 1.0
x_4_0_0: 0.0
x_4_0_1: 0.0
x_4_0_2: 0.0
x_4_0_3: 0.0
x_4_0_4: 1.0
x_4_0_5: -0.0
x_4_0_6: -0.0
x_4_0_7: -0.0
x_4_1_0: -0.0
x_4_1_1: 0.0
x_4_1_2: -0.0
x_4_1_3: -0.0
x_4_1_4: 1.0
x_4_1_5: 0.0
x_4_1_6: -0.0
x_4_1_7: 0.0
x_4_2_0: 0.0
x_4_2_1: -0.0
x_4_2_2: 0.0
x_4_2_3: -0.0
x_4_2_4: 0.0
x_4_2_5: 1.0
x_4_2_6: -0.0
x_4_2_7: 0.0
x_4_3_0: 0.0
x_4_3_1: -0.0
x_4_3_2: 0.0
x_4_3_3: 1.0
x_4_3_4: 0.0
x_4_3_5: 0.0
x_4_3_6: -0.0
x_4_3_7: 0.0
x_4_5_0: 0.0
x_4_5_1: 0.0
x_4_5_2: 0.0
x_4_5_3: -0.0
x_4_5_4: 0.0
x_4_5_5: 1.0
x_4_5_6: -0.0
x_4_5_7: 0.0
x_4_6_0: 0.0
x_4_6_1: 0.0
x_4_6_2: -0.0
x_4_6_3: 1.0
x_4_6_4: 0.0
x_4_6_5: 0.0
x_4_6_6: -0.0
x_4_6_7: 0.0
x_4_7_0: 0.0
x_4_7_1: 0.0
x_4_7_2: 0.0
x_4_7_3: -0.0
x_4_7_4: -0.0
x_4_7_5: 1.0
x_4_7_6: -0.0
x_4_7_7: 0.0
x_5_0_0: 0.0
x_5_0_1: -0.0
x_5_0_2: -0.0
x_5_0_3: -0.0
x_5_0_4: 1.0
x_5_0_5: -0.0
x_5_0_6: 0.0
x_5_0_7: -0.0
x_5_1_0: -0.0
x_5_1_1: 0.0
x_5_1_2: -0.0
x_5_1_3: -0.0
x_5_1_4: 1.0
x_5_1_5: 0.0
x_5_1_6: -0.0
x_5_1_7: -0.0
x_5_2_0: -0.0
x_5_2_1: -0.0
x_5_2_2: -0.0
x_5_2_3: -0.0
x_5_2_4: 0.0
x_5_2_5: 1.0
x_5_2_6: -0.0
x_5_2_7: -0.0
x_5_3_0: 0.0
x_5_3_1: -0.0
x_5_3_2: -0.0
x_5_3_3: -0.0
x_5_3_4: 0.0
x_5_3_5: 0.0
x_5_3_6: 1.0
x_5_3_7: -0.0
x_5_4_0: -0.0
x_5_4_1: 0.0
x_5_4_2: -0.0
x_5_4_3: -0.0
x_5_4_4: 1.0
x_5_4_5: -0.0
x_5_4_6: -0.0
x_5_4_7: -0.0
x_5_6_0: 0.0
x_5_6_1: 0.0
x_5_6_2: -0.0
x_5_6_3: -0.0
x_5_6_4: -0.0
x_5_6_5: -0.0
x_5_6_6: 1.0
x_5_6_7: -0.0
x_5_7_0: 0.0
x_5_7_1: 0.0
x_5_7_2: -0.0
x_5_7_3: -0.0
x_5_7_4: -0.0
x_5_7_5: 1.0
x_5_7_6: -0.0
x_5_7_7: -0.0
x_6_0_0: -0.0
x_6_0_1: -0.0
x_6_0_2: 1.0
x_6_0_3: 0.0
x_6_0_4: -0.0
x_6_0_5: -0.0
x_6_0_6: 0.0
x_6_0_7: -0.0
x_6_1_0: -0.0
x_6_1_1: 1.0
x_6_1_2: 0.0
x_6_1_3: -0.0
x_6_1_4: -0.0
x_6_1_5: 0.0
x_6_1_6: -0.0
x_6_1_7: 0.0
x_6_2_0: -0.0
x_6_2_1: -0.0
x_6_2_2: 1.0
x_6_2_3: 0.0
x_6_2_4: -0.0
x_6_2_5: 0.0
x_6_2_6: -0.0
x_6_2_7: 0.0
x_6_3_0: -0.0
x_6_3_1: -0.0
x_6_3_2: 0.0
x_6_3_3: -0.0
x_6_3_4: -0.0
x_6_3_5: 0.0
x_6_3_6: 1.0
x_6_3_7: 0.0
x_6_4_0: -0.0
x_6_4_1: 0.0
x_6_4_2: 0.0
x_6_4_3: -0.0
x_6_4_4: -0.0
x_6_4_5: 0.0
x_6_4_6: 1.0
x_6_4_7: 0.0
x_6_5_0: -0.0
x_6_5_1: 1.0
x_6_5_2: -0.0
x_6_5_3: -0.0
x_6_5_4: -0.0
x_6_5_5: 0.0
x_6_5_6: 0.0
x_6_5_7: 0.0
x_6_7_0: -0.0
x_6_7_1: -0.0
x_6_7_2: 1.0
x_6_7_3: 0.0
x_6_7_4: -0.0
x_6_7_5: 0.0
x_6_7_6: -0.0
x_6_7_7: 0.0
x_7_0_0: 1.0
x_7_0_1: -0.0
x_7_0_2: -0.0
x_7_0_3: 0.0
x_7_0_4: 0.0
x_7_0_5: -0.0
x_7_0_6: -0.0
x_7_0_7: -0.0
x_7_1_0: 0.0
x_7_1_1: -0.0
x_7_1_2: 0.0
x_7_1_3: 0.0
x_7_1_4: 0.0
x_7_1_5: 0.0
x_7_1_6: -0.0
x_7_1_7: 1.0
x_7_2_0: 0.0
x_7_2_1: -0.0
x_7_2_2: 0.0
x_7_2_3: 1.0
x_7_2_4: -0.0
x_7_2_5: 0.0
x_7_2_6: -0.0
x_7_2_7: 0.0
x_7_3_0: -0.0
x_7_3_1: -0.0
x_7_3_2: -0.0
x_7_3_3: 1.0
x_7_3_4: -0.0
x_7_3_5: 0.0
x_7_3_6: 0.0
x_7_3_7: 0.0
x_7_4_0: 1.0
x_7_4_1: -0.0
x_7_4_2: -0.0
x_7_4_3: -0.0
x_7_4_4: 0.0
x_7_4_5: -0.0
x_7_4_6: 0.0
x_7_4_7: 0.0
x_7_5_0: -0.0
x_7_5_1: -0.0
x_7_5_2: 0.0
x_7_5_3: 0.0
x_7_5_4: -0.0
x_7_5_5: 0.0
x_7_5_6: 0.0
x_7_5_7: 1.0
x_7_6_0: -0.0
x_7_6_1: -0.0
x_7_6_2: 0.0
x_7_6_3: 1.0
x_7_6_4: -0.0
x_7_6_5: 0.0
x_7_6_6: 0.0
x_7_6_7: 0.0
a_0_0: 1.0
a_0_1: 1.0
a_0_2: 0.0
a_0_3: 0.0
a_0_4: 0.0
a_0_5: 0.0
a_0_6: -0.0
a_0_7: 1.0
a_1_0: 1.0
a_1_1: 1.0
a_1_2: -0.0
a_1_3: 0.0
a_1_4: 0.0
a_1_5: 0.0
a_1_6: 1.0
a_1_7: -0.0
a_2_0: 1.0
a_2_1: 0.0
a_2_2: 1.0
a_2_3: -0.0
a_2_4: 0.0
a_2_5: 0.0
a_2_6: 1.0
a_2_7: 0.0
a_3_0: 0.0
a_3_1: 0.0
a_3_2: -0.0
a_3_3: 1.0
a_3_4: 1.0
a_3_5: 0.0
a_3_6: 0.0
a_3_7: 1.0
a_4_0: 0.0
a_4_1: 0.0
a_4_2: 0.0
a_4_3: 1.0
a_4_4: 1.0
a_4_5: 1.0
a_4_6: -0.0
a_4_7: 0.0
a_5_0: 0.0
a_5_1: 1.0
a_5_2: 0.0
a_5_3: -0.0
a_5_4: 1.0
a_5_5: 1.0
a_5_6: 0.0
a_5_7: 0.0
a_6_0: -0.0
a_6_1: -0.0
a_6_2: 1.0
a_6_3: -0.0
a_6_4: 0.0
a_6_5: 1.0
a_6_6: 1.0
a_6_7: 0.0
a_7_0: 0.0
a_7_1: -0.0
a_7_2: 1.0
a_7_3: 1.0
a_7_4: 0.0
a_7_5: -0.0
a_7_6: 0.0
a_7_7: 1.0
b_0_0: 1.0
b_0_1: 0.0
b_0_2: 0.0
b_0_3: 1.0
b_0_4: 1.0
b_0_5: 0.0
b_0_6: 0.0
b_0_7: 0.0
b_1_0: 0.0
b_1_1: 1.0
b_1_2: 0.0
b_1_3: -0.0
b_1_4: 0.0
b_1_5: 1.0
b_1_6: 1.0
b_1_7: 0.0
b_2_0: 1.0
b_2_1: 0.0
b_2_2: 1.0
b_2_3: 0.0
b_2_4: 0.0
b_2_5: 0.0
b_2_6: 0.0
b_2_7: 1.0
b_3_0: 0.0
b_3_1: 0.0
b_3_2: 1.0
b_3_3: 1.0
b_3_4: 0.0
b_3_5: 0.0
b_3_6: 1.0
b_3_7: 0.0
b_4_0: 1.0
b_4_1: 1.0
b_4_2: 0.0
b_4_3: 0.0
b_4_4: 1.0
b_4_5: 0.0
b_4_6: 0.0
b_4_7: -0.0
b_5_0: -0.0
b_5_1: 0.0
b_5_2: 1.0
b_5_3: 0.0
b_5_4: 0.0
b_5_5: 1.0
b_5_6: 0.0
b_5_7: 1.0
b_6_0: 0.0
b_6_1: -0.0
b_6_2: 0.0
b_6_3: 1.0
b_6_4: 1.0
b_6_5: 0.0
b_6_6: 1.0
b_6_7: -0.0
b_7_0: -0.0
b_7_1: 1.0
b_7_2: 0.0
b_7_3: 0.0
b_7_4: 0.0
b_7_5: 1.0
b_7_6: 0.0
b_7_7: 1.0
A_0: 2.0
B_0: 2.0
C_0: 2.0
D_0: 2.0
Cin_0: 8.0
Cout_0: 8.0
A_1: 2.0
B_1: 2.0
C_1: 2.0
D_1: 2.0
Cin_1: 8.0
Cout_1: 8.0
A_2: 2.0
B_2: 2.0
C_2: 2.0
D_2: 2.0
Cin_2: 8.0
Cout_2: 8.0
A_3: 2.0
B_3: 2.0
C_3: 2.0
D_3: 2.0
Cin_3: 8.0
Cout_3: 8.0
A_4: 2.0
B_4: 2.0
C_4: 2.0
D_4: 2.0
Cin_4: 8.0
Cout_4: 8.0
A_5: 2.0
B_5: 2.0
C_5: 2.0
D_5: 2.0
Cin_5: 8.0
Cout_5: 8.0
A_6: 2.0
B_6: 2.0
C_6: 2.0
D_6: 2.0
Cin_6: 8.0
Cout_6: 8.0
A_7: 2.0
B_7: 2.0
C_7: 2.0
D_7: 2.0
Cin_7: 8.0
Cout_7: 8.0
Comm_Volume: 8.0
Allocation Matrix:
0  1  2  0  0  1  1  2  
0  1  5  0  0  1  1  5  
2  7  2  6  6  7  6  2  
4  7  3  3  4  7  3  7  
4  4  5  3  4  5  3  5  
4  4  5  6  4  5  6  5  
2  1  2  6  6  1  6  2  
0  7  3  3  0  7  3  7  
